30
7 4 5
8 1 13
8 4 12
8 7 27
11 0 19
11 3 22
11 8 32
12 5 34
12 7 36
12 11 37
14 6 24
14 13 9
15 1 31
16 5 32
17 12 7
18 7 35
19 0 18
19 18 16
20 0 10
20 3 14
20 4 33
20 7 30
20 9 27
21 6 9
21 7 36
21 18 5
22 4 36
22 16 31
24 21 17
25 14 34
25 19 22
26 1 15
26 2 22
26 11 33
26 15 36
28 4 20
28 14 17
28 15 11
28 21 8
28 23 15
29 3 38
